RandInst10
10000
30
681 12
599 12
1088 16
1360 5
1114 4
2415 1
594 5
1028 12
515 7
1619 14
2078 4
1451 8
1913 19
842 11
1602 11
1699 11
2359 17
2312 13
637 9
1802 9
1913 3
2226 8
2296 17
623 16
1013 6
504 15
1272 11
2351 3
2445 3
1672 9
